1330
500000
331308
331308
331308
331308
331308
331308
331308
331308
330665
330665
330665
330665
330665
330665
330665
330665
330665
330665
330665
327589
327589
327589
327589
327589
327589
327589
327589
327589
327589
327589
327589
327589
327589
327589
327589
327589
327589
327589
327589
325507
325507
325507
325507
325507
325507
325507
325507
323848
323638
323638
323638
323638
323638
323638
323638
323638
323638
323638
323638
323638
323638
323638
323638
323638
323638
323638
323638
321075
321075
321075
321075
321075
321075
321075
321075
321075
321075
321075
321075
321075
321075
321075
321075
321075
321075
316581
316581
316581
316581
316581
316581
316581
316581
316581
314162
314162
314162
314162
314162
310181
310181
310181
310181
310181
310181
310181
310181
310181
310181
310181
310181
310181
310181
310181
310181
310181
310181
310010
310010
310010
310010
310010
310010
310010
310010
307877
307877
307877
307877
307877
307877
307877
307877
307877
307877
307877
307877
307877
307877
307877
301368
301368
301368
301368
301368
301368
301368
301368
301368
301368
301368
301368
301368
301368
301368
301368
301368
301368
301368
300606
300606
300606
300606
300606
300606
300606
300606
300606
300606
300606
300606
300606
300606
300606
298796
298796
298796
298796
298796
298796
298796
298796
298796
298796
298796
298796
298796
295590
295590
295590
295590
295590
295590
295590
295590
295590
295590
295590
295590
295590
295590
295590
295590
295590
295590
294664
294664
294664
294664
294664
294664
294664
294664
294121
294121
294121
294121
290993
290993
290993
290993
284244
284244
284244
284244
283050
279080
279080
279080
279080
279080
279080
279080
279080
275010
275010
275010
275010
274889
274889
274889
274889
274889
274889
274889
274889
274889
274889
269536
269536
269536
269536
269536
269536
269536
269536
269536
269536
269536
269536
269536
269536
265924
265924
265924
265924
265924
265924
265924
265924
265924
265924
265924
265924
265924
265924
265924
265924
265924
265924
264156
264156
264156
264156
264156
264156
264156
264156
264156
264156
264156
264156
264156
264156
264156
264156
263405
263405
263405
263405
263405
263405
263405
263405
263405
263405
263405
263405
263405
263405
263405
263405
263205
263205
263205
263205
263205
263205
263205
263205
263205
263205
263205
263205
263205
263205
263205
263205
263205
263205
260282
260282
260282
260282
260282
260282
258675
258675
258675
258675
258675
251324
251059
251059
251059
251059
251059
251059
251059
251059
250345
250345
250345
250345
250345
250345
250345
250345
250345
250345
250345
250345
250345
250345
250345
250345
250345
250345
248965
248965
248965
248965
248965
248965
248965
248965
245818
245818
245197
245197
245197
245197
245197
245197
245197
245197
245197
245197
245197
245197
245197
244032
244032
244032
244032
244032
244032
244032
244032
244032
243827
243827
243827
243827
243827
243827
243827
243827
243827
243827
243827
243827
243827
243827
243827
243827
241784
241784
237235
237235
237235
237235
237235
237235
237235
237235
237235
237235
237235
237235
237235
237235
236008
236008
236008
236008
236008
236008
232170
232170
232170
232170
232170
232170
232170
232170
232170
232170
232170
232170
232170
224429
224429
224429
224429
224429
224429
224429
224429
224429
224429
222555
222555
222175
222175
222175
222175
222175
222175
222175
222175
222175
222175
222175
222175
222175
222043
222043
222043
222043
220022
220022
220022
220022
220022
220022
220022
220022
220022
220022
220022
220022
218584
218584
218584
218584
218584
218584
218584
218584
218584
218584
218584
218584
218584
218584
216376
216376
216376
216376
216376
216376
216376
216376
216376
216376
216376
216376
216376
216169
216169
216169
216169
216169
216169
216169
216169
216169
216169
216169
216169
216169
216169
215533
215533
215533
215533
215533
215533
215533
215533
215533
215533
215533
215533
215533
215533
215533
215533
215533
215533
215533
215533
215498
215498
215498
215498
215498
215498
215498
215498
215498
215498
215498
215498
215027
215027
215027
215027
215027
215027
215027
215027
215027
215027
215027
215027
215027
215027
215027
210775
210775
210476
210476
204744
204744
204744
204744
204744
204744
204744
204744
204744
204744
204744
202555
202555
202555
195977
195265
193136
193136
193136
193136
193136
193136
193136
193136
193136
193136
193136
193136
193136
193136
193136
193136
193136
193136
193136
193136
192203
192203
192203
192203
192203
192203
192203
192203
192203
192203
187882
187882
187882
186677
186677
186677
186677
186677
186677
186677
186677
186677
186677
185094
185094
185094
185094
185094
185094
185094
184220
184220
184220
184220
184220
184220
184220
184220
183517
183517
183517
183517
183517
183517
183517
183517
183517
183517
183517
183517
183517
183517
183517
183517
183517
177127
177127
177127
177127
177127
176201
176201
176201
176201
176201
176201
176201
176201
176201
176201
176201
173867
173867
173867
173867
173867
173814
173814
173814
173814
173814
173814
173814
173814
173814
173814
173814
173814
173228
173228
173228
173228
173228
173228
173228
173228
173228
173228
173228
173228
173228
173228
173228
172468
172468
172468
172468
172468
172468
170971
170971
170971
170971
170971
170971
170971
170971
170971
170971
170971
167383
167383
167383
167383
167383
167383
167383
167383
166703
166703
166703
166703
166703
166703
166703
166703
166703
166703
166703
166703
166703
166703
166703
166703
166703
166703
166703
165823
163585
163585
163585
163585
163585
163585
163585
163585
163585
163585
161886
161886
161886
161886
161886
161886
161886
161886
161886
161886
161307
161307
161307
161307
161307
161307
161307
161307
161307
161307
161307
161307
161307
161307
161307
160596
160596
160596
160596
160596
160596
160596
160596
160596
160596
160596
160596
160596
160596
160596
160596
160596
160596
160596
160596
159707
159707
159707
159707
159707
159707
159707
159707
159707
159707
159707
159707
159707
159707
159707
159106
159106
159106
159106
159106
159106
159106
159106
159106
159106
159106
159106
159106
159106
159106
159106
159106
159106
157305
157305
157305
157305
157305
157305
157305
157305
157305
157305
157305
157305
157305
157305
154625
154625
154625
154625
154625
154625
154625
154625
153347
153347
153347
153347
153347
153347
153347
153347
153347
153347
153347
153347
153347
153347
153347
153347
153347
152978
152978
152978
152978
152978
152978
152978
152978
152978
152978
152978
152978
152978
152978
152978
152978
152978
150984
150984
150984
150984
150984
150984
150984
150984
150984
150984
150984
150984
150984
150984
150984
150984
150646
150646
150646
150646
150646
150646
150646
150646
150646
150646
150646
150646
150646
150646
150646
150646
150646
150646
150646
150646
149323
149323
149323
149323
149323
149323
149323
149323
149323
149323
149323
149323
149323
149323
149323
149323
149323
149323
149323
145146
145146
145146
145146
143489
143489
143489
143489
143489
143489
143489
143489
143489
143489
143489
143489
143489
143489
143489
143489
143489
143489
142824
142824
142824
142824
142824
142824
142824
142824
142824
142824
142824
142824
142824
142824
142824
142526
142526
142526
142526
142526
142526
142526
142526
142526
142526
142526
134192
134192
134192
134192
134192
134192
134192
134192
134192
134192
134192
134192
134192
134192
134192
134192
134192
134192
133013
133013
133013
133013
133013
133013
133013
133013
132544
132544
132544
132544
132544
132544
132544
132544
132544
132544
132544
132544
132544
132544
132544
132544
132544
132544
127959
127959
127959
127959
127959
127959
127959
127959
127959
127959
127959
127959
127959
127959
127959
127959
127959
127959
127959
127959
127420
127420
127420
127420
127420
127420
127420
127420
127420
127420
125439
125439
125439
125439
125439
125439
125439
125439
125439
125439
125439
125439
124301
124301
124301
124301
124301
124301
124301
124045
124045
124045
124045
124045
124045
122163
122163
122163
122163
122163
122163
122163
122163
122163
122163
122163
122163
122163
122163
122163
122163
122163
112789
112789
112789
112789
112789
112789
112789
112789
112789
112789
112789
112789
112789
112789
112789
112789
112789
112789
110537
110537
110537
110537
110537
110537
110537
110537
110537
110537
110537
110537
110537
110537
110537
109561
109561
109561
109561
109561
109561
109561
109561
109561
109561
109561
109561
109561
109561
109561
109561
109561
109561
109561
106123
106123
106123
106123
106123
106123
106123
102224
94285
94285
94285
94285
94285
94285
94285
94285
94285
94285
94285
94285
94285
94285
94285
94285
94285
94285
92897
92897
92897
90940
88050
88050
88050
88050
88050
88050
88050
85536
85536
85536
85536
85536
85536
85536
83590
83590
83590
83590
83590
83590
83590
83590
82105
82105
82105
82105
82105
82105
82105
82105
82105
82105
82105
82105
82105
82105
82105
82105
82105
82105
79757
79757
79757
79757
79757
79757
79399
79399
79399
79399
79399
78095
78095
78095
78095
78095
78095
78095
78095
78095
78095
78095
77674
77674
77674
77674
77674
77674
77674
77674
77674
77674
77674
71871
71871
71871
71871
71871
71871
71871
71871
71871
71871
71871
71871
71871
71871
71871
71871
71871
71871
71489
71489
71489
71489
71489
71489
71489
71489
71489
71489
71489
71489
71489
71489
71489
71489
69284
69284
69284
68676
68676
67394
67394
67394
67394
66694
